c n orig vars 70
p cnf 72 148
1 2 -71 0
3 4 -71 0
5 6 -71 0
7 8 -71 0
9 10 -71 0
11 12 -71 0
13 14 -71 0
15 16 -71 0
17 18 -71 0
19 20 -71 0
21 22 -71 0
23 24 -71 0
25 26 -71 0
27 28 -71 0
29 36 43 50 57 64 -72 0
30 37 44 51 58 65 -72 0
31 38 45 52 59 66 -72 0
32 39 46 53 60 67 -72 0
33 40 47 54 61 68 -72 0
34 41 48 55 62 69 -72 0
35 42 49 56 63 70 -72 0
-29 -30 -72 0
-29 -31 -72 0
-29 -32 -72 0
-29 -33 -72 0
-29 -34 -72 0
-29 -35 -72 0
-30 -31 -72 0
-30 -32 -72 0
-30 -33 -72 0
-30 -34 -72 0
-30 -35 -72 0
-31 -32 -72 0
-31 -33 -72 0
-31 -34 -72 0
-31 -35 -72 0
-32 -33 -72 0
-32 -34 -72 0
-32 -35 -72 0
-33 -34 -72 0
-33 -35 -72 0
-34 -35 -72 0
-36 -37 -72 0
-36 -38 -72 0
-36 -39 -72 0
-36 -40 -72 0
-36 -41 -72 0
-36 -42 -72 0
-37 -38 -72 0
-37 -39 -72 0
-37 -40 -72 0
-37 -41 -72 0
-37 -42 -72 0
-38 -39 -72 0
-38 -40 -72 0
-38 -41 -72 0
-38 -42 -72 0
-39 -40 -72 0
-39 -41 -72 0
-39 -42 -72 0
-40 -41 -72 0
-40 -42 -72 0
-41 -42 -72 0
-43 -44 -72 0
-43 -45 -72 0
-43 -46 -72 0
-43 -47 -72 0
-43 -48 -72 0
-43 -49 -72 0
-44 -45 -72 0
-44 -46 -72 0
-44 -47 -72 0
-44 -48 -72 0
-44 -49 -72 0
-45 -46 -72 0
-45 -47 -72 0
-45 -48 -72 0
-45 -49 -72 0
-46 -47 -72 0
-46 -48 -72 0
-46 -49 -72 0
-47 -48 -72 0
-47 -49 -72 0
-48 -49 -72 0
-50 -51 -72 0
-50 -52 -72 0
-50 -53 -72 0
-50 -54 -72 0
-50 -55 -72 0
-50 -56 -72 0
-51 -52 -72 0
-51 -53 -72 0
-51 -54 -72 0
-51 -55 -72 0
-51 -56 -72 0
-52 -53 -72 0
-52 -54 -72 0
-52 -55 -72 0
-52 -56 -72 0
-53 -54 -72 0
-53 -55 -72 0
-53 -56 -72 0
-54 -55 -72 0
-54 -56 -72 0
-55 -56 -72 0
-57 -58 -72 0
-57 -59 -72 0
-57 -60 -72 0
-57 -61 -72 0
-57 -62 -72 0
-57 -63 -72 0
-58 -59 -72 0
-58 -60 -72 0
-58 -61 -72 0
-58 -62 -72 0
-58 -63 -72 0
-59 -60 -72 0
-59 -61 -72 0
-59 -62 -72 0
-59 -63 -72 0
-60 -61 -72 0
-60 -62 -72 0
-60 -63 -72 0
-61 -62 -72 0
-61 -63 -72 0
-62 -63 -72 0
-64 -65 -72 0
-64 -66 -72 0
-64 -67 -72 0
-64 -68 -72 0
-64 -69 -72 0
-64 -70 -72 0
-65 -66 -72 0
-65 -67 -72 0
-65 -68 -72 0
-65 -69 -72 0
-65 -70 -72 0
-66 -67 -72 0
-66 -68 -72 0
-66 -69 -72 0
-66 -70 -72 0
-67 -68 -72 0
-67 -69 -72 0
-67 -70 -72 0
-68 -69 -72 0
-68 -70 -72 0
-69 -70 -72 0
71 72 0
